unsat
(:cnf-encoding-aux-vars 9
 :eliminated-vars       23
 :max-memory            18.14
 :memory                18.04
 :nlsat-conflicts       8
 :nlsat-decisions       17
 :nlsat-propagations    36
 :nlsat-stages          2
 :num-allocs            36275
 :rlimit-count          11010
 :time                  0.00
 :total-time            0.01)
